benchmark_str_length/p1_10_8-4.dzn
Alphabet = {A,C,G,T};
ns = 10;
nc = 8;
sl = 8;
neighbours = [| I(C),I(A),I(C),I(A),I(A),I(A),I(A),I(A) | I(A),I(A),I(A),I(C),I(A),I(C),I(A),I(C) | I(A),I(A),I(A),I(A),I(A),I(A),I(A),I(C) | I(A),I(C),I(A),I(G),I(A),I(C),I(A),I(G) | I(A),I(A),I(A),I(A),I(C),I(A),I(A),I(C) | I(A),I(C),I(A),I(A),I(G),I(A),I(A),I(A) | I(A),I(G),I(A),I(G),I(C),I(A),I(A),I(A) | I(C),I(C),I(C),I(A),I(A),I(A),I(A),I(A) | I(A),I(A),I(C),I(A),I(C),I(A),I(A),I(A) | I(A),I(A),I(A),I(A),I(G),I(A),I(C),I(A) |];
