benchmark_str_length/p1_10_8-4.txt
{
	"num_strings": 10,
	"alphabet": "ACGT",
	"strings": [
		"CACAAAAA",
		"AAACACAC",
		"AAAAAAAC",
		"ACAGACAG",
		"AAAACAAC",
		"ACAAGAAA",
		"AGAGCAAA",
		"CCCAAAAA",
		"AACACAAA",
		"AAAAGACA"
	],
	"str_length":[8,8,8,8,8,8,8,8,8,8]
}